c input.cnf
c
p cnf 100 394
-1 0
-2 0
-3 0
-4 0
-2 0
-5 0
-4 0
-6 0
-5 0
-7 0
-6 0
-8 0
-7 0
-9 0
-8 0
-10 0
-9 0
-11 0
-10 0
-12 0
-11 0
-13 0
-12 0
-14 0
-13 0
-15 0
-14 0
-16 0
-15 0
-17 0
-16 0
-18 0
-17 0
-19 0
-18 0
-20 0
-3 0
-4 0
-21 0
-22 0
-4 0
-6 0
-22 0
-23 0
-6 0
-8 0
-23 0
-24 0
-8 -10 0
-8 -24 0
-8 -25 0
-10 -24 0
-10 -25 0
-24 -25 0
-10 -12 -25 0
-10 -12 -26 0
-10 -25 -26 0
-12 -25 -26 0
-10 12 25 26 0
10 -12 25 26 0
10 12 -25 26 0
10 12 25 -26 0
-12 -14 0
-12 -26 0
-12 -27 0
-14 -26 0
-14 -27 0
-26 -27 0
-14 0
-16 0
-27 0
-28 0
-16 0
-18 0
-28 0
-29 0
-18 0
-20 0
-29 0
-30 0
-21 0
-22 0
-31 0
-32 0
-22 0
-23 0
-32 0
-33 0
-23 -24 0
-23 -33 0
-23 -34 0
-24 -33 0
-24 -34 0
-33 -34 0
-24 -25 -34 0
-24 -25 -35 0
-24 -34 -35 0
-25 -34 -35 0
-24 25 34 35 0
24 -25 34 35 0
24 25 -34 35 0
24 25 34 -35 0
-25 -26 -35 -36 0
-26 -27 -36 0
-26 -27 -37 0
-26 -36 -37 0
-27 -36 -37 0
-26 27 36 37 0
26 -27 36 37 0
26 27 -36 37 0
26 27 36 -37 0
-27 -28 0
-27 -37 0
-27 -38 0
-28 -37 0
-28 -38 0
-37 -38 0
-28 0
-29 0
-38 0
-39 0
-29 0
-30 0
-39 0
-40 0
-31 0
-32 0
-41 0
-42 0
-32 -33 0
-32 -42 0
-32 -43 0
-33 -42 0
-33 -43 0
-42 -43 0
-33 -34 -43 0
-33 -34 -44 0
-33 -43 -44 0
-34 -43 -44 0
-33 34 43 44 0
33 -34 43 44 0
33 34 -43 44 0
33 34 43 -44 0
-34 -35 -44 -45 0
-35 -36 -45 0
-35 -36 -46 0
-35 -45 -46 0
-36 -45 -46 0
-35 36 45 46 0
35 -36 45 46 0
35 36 -45 46 0
35 36 45 -46 0
-36 -37 -46 -47 0
-37 -38 -47 0
-37 -38 -48 0
-37 -47 -48 0
-38 -47 -48 0
-37 38 47 48 0
37 -38 47 48 0
37 38 -47 48 0
37 38 47 -48 0
-38 -39 0
-38 -48 0
-38 -49 0
-39 -48 0
-39 -49 0
-48 -49 0
-39 0
-40 0
-49 0
-50 0
-41 0
-42 0
-51 0
-52 0
-42 -43 -52 0
-42 -43 -53 0
-42 -52 -53 0
-43 -52 -53 0
-42 43 52 53 0
42 -43 52 53 0
42 43 -52 53 0
42 43 52 -53 0
43 0
44 0
53 0
54 0
-44 -45 -54 0
-44 -45 -55 0
-44 -54 -55 0
-45 -54 -55 0
-44 45 54 55 0
44 -45 54 55 0
44 45 -54 55 0
44 45 54 -55 0
-45 -46 -55 -56 0
-46 -47 -56 0
-46 -47 -57 0
-46 -56 -57 0
-47 -56 -57 0
-46 47 56 57 0
46 -47 56 57 0
46 47 -56 57 0
46 47 56 -57 0
-47 -48 -57 -58 0
47 48 0
47 57 0
47 58 0
48 57 0
48 58 0
57 58 0
-48 -49 -58 0
-48 -49 -59 0
-48 -58 -59 0
-49 -58 -59 0
-48 49 58 59 0
48 -49 58 59 0
48 49 -58 59 0
48 49 58 -59 0
-49 0
-50 0
-59 0
-60 0
-51 0
-52 0
-61 0
-62 0
-52 -53 0
-52 -62 0
-52 -63 0
-53 -62 0
-53 -63 0
-62 -63 0
-53 -54 -63 0
-53 -54 -64 0
-53 -63 -64 0
-54 -63 -64 0
-53 54 63 64 0
53 -54 63 64 0
53 54 -63 64 0
53 54 63 -64 0
-54 -55 -64 -65 0
-55 -56 -65 0
-55 -56 -66 0
-55 -65 -66 0
-56 -65 -66 0
-55 56 65 66 0
55 -56 65 66 0
55 56 -65 66 0
55 56 65 -66 0
-56 -57 -66 -67 0
-57 -58 -67 0
-57 -58 -68 0
-57 -67 -68 0
-58 -67 -68 0
-57 58 67 68 0
57 -58 67 68 0
57 58 -67 68 0
57 58 67 -68 0
-58 -59 0
-58 -68 0
-58 -69 0
-59 -68 0
-59 -69 0
-68 -69 0
-59 0
-60 0
-69 0
-70 0
-61 0
-62 0
-71 0
-72 0
-62 0
-63 0
-72 0
-73 0
-63 -64 0
-63 -73 0
-63 -74 0
-64 -73 0
-64 -74 0
-73 -74 0
-64 -65 -74 0
-64 -65 -75 0
-64 -74 -75 0
-65 -74 -75 0
-64 65 74 75 0
64 -65 74 75 0
64 65 -74 75 0
64 65 74 -75 0
-65 -66 -75 -76 0
-66 -67 -76 0
-66 -67 -77 0
-66 -76 -77 0
-67 -76 -77 0
-66 67 76 77 0
66 -67 76 77 0
66 67 -76 77 0
66 67 76 -77 0
-67 -68 0
-67 -77 0
-67 -78 0
-68 -77 0
-68 -78 0
-77 -78 0
-68 0
-69 0
-78 0
-79 0
-69 0
-70 0
-79 0
-80 0
-71 0
-72 0
-81 0
-82 0
-72 0
-73 0
-82 0
-83 0
-73 0
-74 0
-83 0
-84 0
-74 -75 0
-74 -84 0
-74 -85 0
-75 -84 0
-75 -85 0
-84 -85 0
-75 -76 -85 0
-75 -76 -86 0
-75 -85 -86 0
-76 -85 -86 0
-75 76 85 86 0
75 -76 85 86 0
75 76 -85 86 0
75 76 85 -86 0
-76 -77 0
-76 -86 0
-76 -87 0
-77 -86 0
-77 -87 0
-86 -87 0
-77 0
-78 0
-87 0
-88 0
-78 0
-79 0
-88 0
-89 0
-79 0
-80 0
-89 0
-90 0
-81 0
-82 0
-91 0
-92 0
-82 0
-83 0
-92 0
-93 0
-83 0
-84 0
-93 0
-94 0
-84 0
-85 0
-94 0
-95 0
-85 0
-86 0
-95 0
-96 0
-86 0
-87 0
-96 0
-97 0
-87 0
-88 0
-97 0
-98 0
-88 0
-89 0
-98 0
-99 0
-89 0
-90 0
-99 0
-100 0
